# Solution for model decomposition_srl_ilp
# Objective value = 6.5196852198302429e+00
Z_206_1_0 0
Z_206_1_1 0
Z_206_1_2 0
Z_206_1_3 1
Z_206_2_0 1
Z_206_2_1 0
Z_206_2_2 0
Z_206_2_3 0
Z_206_0_0 0
Z_206_0_1 0
Z_206_0_2 1
Z_206_0_3 0
Z_460_0_0 0
Z_460_0_1 0
Z_460_0_2 0
Z_460_0_3 0
Z_460_2_0 1
Z_460_2_1 0
Z_460_2_2 0
Z_460_2_3 0
Z_460_1_0 0
Z_460_1_1 0
Z_460_1_2 1
Z_460_1_3 0
Z_460_3_0 0
Z_460_3_1 0
Z_460_3_2 0
Z_460_3_3 1
Z_460_4_0 0
Z_460_4_1 1
Z_460_4_2 0
Z_460_4_3 0
Z_259_0_0 0
Z_259_0_1 0
Z_259_0_2 0
Z_259_0_3 1
Z_316_0_0 0
Z_316_0_1 0
Z_316_0_2 0
Z_316_0_3 1
Z_361_0_0 0
Z_361_0_1 0
Z_361_0_2 0
Z_361_0_3 1
Z_85_1_0 0
Z_85_1_1 0
Z_85_1_2 1
Z_85_1_3 0
Z_85_0_0 0
Z_85_0_1 0
Z_85_0_2 0
Z_85_0_3 1
Z_654_0_0 0
Z_654_0_1 0
Z_654_0_2 1
Z_654_0_3 0
